c Random generated cnf formula, satisfiable: true
p cnf 10 50
-10 4 -3 0
3 -1 9 0
6 -10 1 0
-6 -9 5 0
7 9 10 0
-1 5 4 0
-2 -10 -4 0
8 -1 -2 0
7 9 10 0
5 -7 10 0
-6 3 1 0
-6 -3 -1 0
4 -1 3 0
8 6 -9 0
-2 9 -4 0
-3 -5 4 0
-8 -9 -10 0
5 -8 -4 0
2 3 -6 0
1 4 3 0
7 -10 3 0
-7 -5 -8 0
-2 10 -4 0
-8 6 7 0
-4 3 -8 0
2 -6 -10 0
-4 9 -8 0
-1 -7 -9 0
-8 -2 1 0
-5 -1 9 0
2 -10 3 0
-6 -7 -10 0
-1 -8 -5 0
9 4 -7 0
10 2 7 0
-2 -7 -9 0
6 4 10 0
9 10 -3 0
-9 -3 -2 0
-3 1 -7 0
3 -7 4 0
6 8 -1 0
-7 -3 -8 0
7 8 -6 0
-3 4 5 0
2 -1 -6 0
3 5 6 0
-1 7 -9 0
-4 7 1 0
-1 5 7 0
